NAME : mr59
COMMENT : 59-city problem (DISC)
TYPE : TSP
DIMENSION : 59
EDGE_WEIGHT_TYPE : EUC_2D
NODE_COORD_SECTION
1 93 75
2 16 3
3 87 82
4 9 29
5 58 44
6 29 94
7 26 55
8 57 91
9 22 40
10 65 60
11 63 90
12 42 17
13 41 81
14 46 19
15 24 64
16 14 52
17 11 73
18 48 4
19 12 92
20 29 78
21 84 96
22 32 23
23 8 68
24 77 36
25 26 27
26 94 40
27 81 76
28 34 39
29 50 92
30 23 64
31 44 100
32 65 73
33 97 49
34 44 23
35 44 66
36 65 59
37 92 59
38 56 16
39 54 81
40 45 62
41 14 87
42 94 15
43 64 55
44 95 37
45 46 54
46 39 27
47 62 78
48 68 89
49 77 2
50 32 31
51 30 4
52 21 23
53 29 26
54 70 3
55 93 28
56 35 56
57 71 24
58 65 55
59 5 23
EOF
